data;
set K:= K1 K2 K3 K4 K5 K6 K7 K8 K9 K10 K11 K12 K13 K14 K15 ;

set F:= F1 F2 F3 ;

set Q:= Q1 Q2 ;

param T:= 45;
param V: 
	K1  K2  K3  K4  K5  K6  K7  K8  K9  K10 K11 K12 K13 K14 K15 :=
Q1	1   1   1   1   1   1   1   1   1   0   0   0   0   0   0   
Q2	0   0   0   0   0   0   0   0   0   1   1   1   1   1   1   
; # if resorce k is of type q

param TF:= 
K1 6
K2 6
K3 6
K4 6
K5 6
K6 6
K7 6
K8 6
K9 6
K10 12
K11 12
K12 12
K13 12
K14 12
K15 12
; # number of continuous time slots resource can fly

param TR:= 
K1 2
K2 2
K3 2
K4 2
K5 2
K6 2
K7 2
K8 2
K9 2
K10 4
K11 4
K12 4
K13 4
K14 4
K15 4
; #  number of continuous time slots resource k needs to rest between flights

param P:= 
K1 36
K2 36
K3 36
K4 36
K5 36
K6 36
K7 36
K8 36
K9 36
K10 36
K11 36
K12 36
K13 36
K14 36
K15 36
; #  number of continuous time slots a pilot can be present including rest times for resource k 

param N:= 
K1 4
K2 4
K3 4
K4 4
K5 4
K6 4
K7 4
K8 4
K9 4
K10 2
K11 2
K12 2
K13 2
K14 2
K15 1
; # max number of flights resource k can fly in the total time period

param A: 
	K1  K2  K3  K4  K5  K6  K7  K8  K9  K10 K11 K12 K13 K14 K15 :=
1	1   1   1   1   1   1   1   1   1   1   1   1   1   1   1   
2	1   1   1   1   1   1   1   1   1   1   1   1   1   1   1   
3	1   1   1   1   1   1   1   1   1   1   1   1   1   1   1   
4	1   1   1   1   1   1   1   1   1   1   1   1   1   1   1   
5	1   1   1   1   1   1   1   1   1   1   1   1   1   1   1   
6	1   1   1   1   1   1   1   1   1   1   1   1   1   1   1   
7	1   1   1   1   1   1   1   1   1   1   1   1   1   1   1   
8	1   1   1   1   1   1   1   1   1   1   1   1   1   1   1   
9	1   1   1   1   1   1   1   1   1   1   1   1   1   1   1   
10	1   1   1   1   1   1   1   1   1   1   1   1   1   1   1   
11	1   1   1   1   1   1   1   1   1   1   1   1   1   1   1   
12	1   1   1   1   1   1   1   1   1   1   1   1   1   1   1   
13	1   1   1   1   1   1   1   1   1   1   1   1   1   1   1   
14	1   1   1   1   1   1   1   1   1   1   1   1   1   1   1   
15	1   1   1   1   1   1   1   1   1   1   1   1   1   1   1   
16	1   1   1   1   1   1   1   1   1   1   1   1   1   1   1   
17	1   1   1   1   1   1   1   1   1   1   1   1   1   1   1   
18	1   1   1   1   1   1   1   1   1   1   1   1   1   1   1   
19	1   1   1   1   1   1   1   1   1   1   1   1   1   1   1   
20	1   1   1   1   1   1   1   1   1   1   1   1   1   1   1   
21	1   1   1   1   1   1   1   1   1   1   1   1   1   1   1   
22	1   1   1   1   1   1   1   1   1   1   1   1   1   1   1   
23	1   1   1   1   1   1   1   1   1   1   1   1   1   1   1   
24	1   1   1   1   1   1   1   1   1   1   1   1   1   1   1   
25	1   1   1   1   1   1   1   1   1   1   1   1   1   1   1   
26	1   1   1   1   1   1   1   1   1   1   1   1   1   1   1   
27	1   1   1   1   1   1   1   1   1   1   1   1   1   1   1   
28	1   1   1   1   1   1   1   1   1   1   1   1   1   1   1   
29	1   1   1   1   1   1   1   1   1   1   1   1   1   1   1   
30	1   1   1   1   1   1   1   1   1   1   1   1   1   1   1   
31	1   1   1   1   1   1   1   1   1   1   1   1   1   1   1   
32	1   1   1   1   1   1   1   1   1   1   1   1   1   1   1   
33	1   1   1   1   1   1   1   1   1   1   1   1   1   1   1   
34	1   1   1   1   1   1   1   1   1   1   1   1   1   1   1   
35	1   1   1   1   1   1   1   1   1   1   1   1   1   1   1   
36	1   1   1   1   1   1   1   1   1   1   1   1   1   1   1   
37	1   1   1   1   1   1   1   1   1   1   1   1   1   1   1   
38	1   1   1   1   1   1   1   1   1   1   1   1   1   1   0   
39	1   1   1   1   1   1   1   1   1   1   1   1   1   1   0   
40	1   1   1   1   1   1   1   1   1   1   1   1   1   1   0   
41	1   1   1   1   1   1   1   1   1   1   1   1   1   1   0   
42	1   1   1   1   1   1   1   1   1   1   1   1   1   1   0   
43	1   1   1   1   1   1   1   1   1   1   1   1   1   1   0   
44	1   1   1   1   1   1   1   1   1   1   1   1   1   1   0   
45	1   1   1   1   1   1   1   1   1   1   1   1   1   1   0   
; # availability of resorce k in time slot t

param B: 
	F1  F2  F3  :=
Q1	1   0   0   
Q2	0   0   0   
; # if front f requires resources of type q

param U: 
	F1  F2  F3  :=
K1	0   0   0   
K2	0   0   0   
K3	0   0   0   
K4	0   0   0   
K5	0   0   0   
K6	0   0   0   
K7	0   0   0   
K8	0   0   0   
K9	0   0   0   
K10	2   2   2   
K11	2   2   2   
K12	2   2   2   
K13	2   2   2   
K14	2   2   2   
K15	2   2   2   
; # transit time of resource

param C:= 
K1 900
K2 900
K3 900
K4 900
K5 900
K6 1500
K7 1500
K8 4500
K9 4500
K10 5500
K11 5500
K12 5500
K13 5500
K14 5500
K15 5500
; #  water capacity of resource k

param S:= 
F1 8
F2 9
F3 9
; # max number of resources that can fly at front f in the same time slot

param D:= 

[*,*,F1 ]:  K1    K2    K3    K4    K5    K6    K7    K8    K9    K10   K11   K12   K13   K14   K15   :=
1           1.99  1.99  1.99  1.99  1.99  1.99  1.99  1.58  1.58  1.19  1.19  1.19  1.19  1.19  1.19  
2           1.99  1.99  1.99  1.99  1.99  1.99  1.99  1.58  1.58  1.19  1.19  1.19  1.19  1.19  1.19  
3           1.99  1.99  1.99  1.99  1.99  1.99  1.99  1.58  1.58  1.19  1.19  1.19  1.19  1.19  1.19  
4           1.99  1.99  1.99  1.99  1.99  1.99  1.99  1.58  1.58  1.19  1.19  1.19  1.19  1.19  1.19  
5           1.99  1.99  1.99  1.99  1.99  1.99  1.99  1.58  1.58  1.19  1.19  1.19  1.19  1.19  1.19  
6           1.99  1.99  1.99  1.99  1.99  1.99  1.99  1.58  1.58  1.19  1.19  1.19  1.19  1.19  1.19  
7           1.99  1.99  1.99  1.99  1.99  1.99  1.99  1.58  1.58  1.19  1.19  1.19  1.19  1.19  1.19  
8           1.99  1.99  1.99  1.99  1.99  1.99  1.99  1.58  1.58  1.19  1.19  1.19  1.19  1.19  1.19  
9           1.99  1.99  1.99  1.99  1.99  1.99  1.99  1.58  1.58  1.19  1.19  1.19  1.19  1.19  1.19  
10          1.99  1.99  1.99  1.99  1.99  1.99  1.99  1.58  1.58  1.19  1.19  1.19  1.19  1.19  1.19  
11          1.99  1.99  1.99  1.99  1.99  1.99  1.99  1.58  1.58  1.19  1.19  1.19  1.19  1.19  1.19  
12          1.99  1.99  1.99  1.99  1.99  1.99  1.99  1.58  1.58  1.19  1.19  1.19  1.19  1.19  1.19  
13          1.99  1.99  1.99  1.99  1.99  1.99  1.99  1.58  1.58  1.19  1.19  1.19  1.19  1.19  1.19  
14          1.99  1.99  1.99  1.99  1.99  1.99  1.99  1.58  1.58  1.19  1.19  1.19  1.19  1.19  1.19  
15          1.99  1.99  1.99  1.99  1.99  1.99  1.99  1.58  1.58  1.19  1.19  1.19  1.19  1.19  1.19  
16          1.99  1.99  1.99  1.99  1.99  1.99  1.99  1.58  1.58  1.19  1.19  1.19  1.19  1.19  1.19  
17          1.99  1.99  1.99  1.99  1.99  1.99  1.99  1.58  1.58  1.19  1.19  1.19  1.19  1.19  1.19  
18          1.99  1.99  1.99  1.99  1.99  1.99  1.99  1.58  1.58  1.19  1.19  1.19  1.19  1.19  1.19  
19          1.99  1.99  1.99  1.99  1.99  1.99  1.99  1.58  1.58  1.19  1.19  1.19  1.19  1.19  1.19  
20          1.99  1.99  1.99  1.99  1.99  1.99  1.99  1.58  1.58  1.19  1.19  1.19  1.19  1.19  1.19  
21          1.99  1.99  1.99  1.99  1.99  1.99  1.99  1.58  1.58  1.19  1.19  1.19  1.19  1.19  1.19  
22          1.99  1.99  1.99  1.99  1.99  1.99  1.99  1.58  1.58  1.19  1.19  1.19  1.19  1.19  1.19  
23          1.99  1.99  1.99  1.99  1.99  1.99  1.99  1.58  1.58  1.19  1.19  1.19  1.19  1.19  1.19  
24          1.99  1.99  1.99  1.99  1.99  1.99  1.99  1.58  1.58  1.19  1.19  1.19  1.19  1.19  1.19  
25          1.89  1.89  1.89  1.89  1.89  1.89  1.89  1.50  1.50  1.13  1.13  1.13  1.13  1.13  1.13  
26          1.89  1.89  1.89  1.89  1.89  1.89  1.89  1.50  1.50  1.13  1.13  1.13  1.13  1.13  1.13  
27          1.89  1.89  1.89  1.89  1.89  1.89  1.89  1.50  1.50  1.13  1.13  1.13  1.13  1.13  1.13  
28          1.89  1.89  1.89  1.89  1.89  1.89  1.89  1.50  1.50  1.13  1.13  1.13  1.13  1.13  1.13  
29          1.89  1.89  1.89  1.89  1.89  1.89  1.89  1.50  1.50  1.13  1.13  1.13  1.13  1.13  1.13  
30          1.89  1.89  1.89  1.89  1.89  1.89  1.89  1.50  1.50  1.13  1.13  1.13  1.13  1.13  1.13  
31          1.89  1.89  1.89  1.89  1.89  1.89  1.89  1.50  1.50  1.13  1.13  1.13  1.13  1.13  1.13  
32          1.89  1.89  1.89  1.89  1.89  1.89  1.89  1.50  1.50  1.13  1.13  1.13  1.13  1.13  1.13  
33          1.89  1.89  1.89  1.89  1.89  1.89  1.89  1.50  1.50  1.13  1.13  1.13  1.13  1.13  1.13  
34          1.99  1.99  1.99  1.99  1.99  1.99  1.99  1.58  1.58  1.19  1.19  1.19  1.19  1.19  1.19  
35          1.99  1.99  1.99  1.99  1.99  1.99  1.99  1.58  1.58  1.19  1.19  1.19  1.19  1.19  1.19  
36          1.99  1.99  1.99  1.99  1.99  1.99  1.99  1.58  1.58  1.19  1.19  1.19  1.19  1.19  1.19  
37          1.99  1.99  1.99  1.99  1.99  1.99  1.99  1.58  1.58  1.19  1.19  1.19  1.19  1.19  1.19  
38          1.99  1.99  1.99  1.99  1.99  1.99  1.99  1.58  1.58  1.19  1.19  1.19  1.19  1.19  1.19  
39          1.99  1.99  1.99  1.99  1.99  1.99  1.99  1.58  1.58  1.19  1.19  1.19  1.19  1.19  1.19  
40          1.99  1.99  1.99  1.99  1.99  1.99  1.99  1.58  1.58  1.19  1.19  1.19  1.19  1.19  1.19  
41          1.99  1.99  1.99  1.99  1.99  1.99  1.99  1.58  1.58  1.19  1.19  1.19  1.19  1.19  1.19  
42          1.99  1.99  1.99  1.99  1.99  1.99  1.99  1.58  1.58  1.19  1.19  1.19  1.19  1.19  1.19  
43          1.99  1.99  1.99  1.99  1.99  1.99  1.99  1.58  1.58  1.19  1.19  1.19  1.19  1.19  1.19  
44          1.99  1.99  1.99  1.99  1.99  1.99  1.99  1.58  1.58  1.19  1.19  1.19  1.19  1.19  1.19  
45          1.99  1.99  1.99  1.99  1.99  1.99  1.99  1.58  1.58  1.19  1.19  1.19  1.19  1.19  1.19  

[*,*,F2 ]:  K1    K2    K3    K4    K5    K6    K7    K8    K9    K10   K11   K12   K13   K14   K15   :=
1           1.90  1.90  1.90  1.90  1.90  1.90  1.90  1.52  1.52  1.14  1.14  1.14  1.14  1.14  1.14  
2           1.90  1.90  1.90  1.90  1.90  1.90  1.90  1.52  1.52  1.14  1.14  1.14  1.14  1.14  1.14  
3           1.90  1.90  1.90  1.90  1.90  1.90  1.90  1.52  1.52  1.14  1.14  1.14  1.14  1.14  1.14  
4           1.90  1.90  1.90  1.90  1.90  1.90  1.90  1.52  1.52  1.14  1.14  1.14  1.14  1.14  1.14  
5           1.90  1.90  1.90  1.90  1.90  1.90  1.90  1.52  1.52  1.14  1.14  1.14  1.14  1.14  1.14  
6           1.90  1.90  1.90  1.90  1.90  1.90  1.90  1.52  1.52  1.14  1.14  1.14  1.14  1.14  1.14  
7           1.90  1.90  1.90  1.90  1.90  1.90  1.90  1.52  1.52  1.14  1.14  1.14  1.14  1.14  1.14  
8           1.90  1.90  1.90  1.90  1.90  1.90  1.90  1.52  1.52  1.14  1.14  1.14  1.14  1.14  1.14  
9           1.90  1.90  1.90  1.90  1.90  1.90  1.90  1.52  1.52  1.14  1.14  1.14  1.14  1.14  1.14  
10          1.90  1.90  1.90  1.90  1.90  1.90  1.90  1.52  1.52  1.14  1.14  1.14  1.14  1.14  1.14  
11          1.90  1.90  1.90  1.90  1.90  1.90  1.90  1.52  1.52  1.14  1.14  1.14  1.14  1.14  1.14  
12          1.90  1.90  1.90  1.90  1.90  1.90  1.90  1.52  1.52  1.14  1.14  1.14  1.14  1.14  1.14  
13          1.90  1.90  1.90  1.90  1.90  1.90  1.90  1.52  1.52  1.14  1.14  1.14  1.14  1.14  1.14  
14          1.90  1.90  1.90  1.90  1.90  1.90  1.90  1.52  1.52  1.14  1.14  1.14  1.14  1.14  1.14  
15          1.90  1.90  1.90  1.90  1.90  1.90  1.90  1.52  1.52  1.14  1.14  1.14  1.14  1.14  1.14  
16          1.90  1.90  1.90  1.90  1.90  1.90  1.90  1.52  1.52  1.14  1.14  1.14  1.14  1.14  1.14  
17          1.90  1.90  1.90  1.90  1.90  1.90  1.90  1.52  1.52  1.14  1.14  1.14  1.14  1.14  1.14  
18          1.90  1.90  1.90  1.90  1.90  1.90  1.90  1.52  1.52  1.14  1.14  1.14  1.14  1.14  1.14  
19          1.90  1.90  1.90  1.90  1.90  1.90  1.90  1.52  1.52  1.14  1.14  1.14  1.14  1.14  1.14  
20          1.90  1.90  1.90  1.90  1.90  1.90  1.90  1.52  1.52  1.14  1.14  1.14  1.14  1.14  1.14  
21          1.90  1.90  1.90  1.90  1.90  1.90  1.90  1.52  1.52  1.14  1.14  1.14  1.14  1.14  1.14  
22          1.90  1.90  1.90  1.90  1.90  1.90  1.90  1.52  1.52  1.14  1.14  1.14  1.14  1.14  1.14  
23          1.90  1.90  1.90  1.90  1.90  1.90  1.90  1.52  1.52  1.14  1.14  1.14  1.14  1.14  1.14  
24          1.90  1.90  1.90  1.90  1.90  1.90  1.90  1.52  1.52  1.14  1.14  1.14  1.14  1.14  1.14  
25          1.81  1.81  1.81  1.81  1.81  1.81  1.81  1.44  1.44  1.08  1.08  1.08  1.08  1.08  1.08  
26          1.81  1.81  1.81  1.81  1.81  1.81  1.81  1.44  1.44  1.08  1.08  1.08  1.08  1.08  1.08  
27          1.81  1.81  1.81  1.81  1.81  1.81  1.81  1.44  1.44  1.08  1.08  1.08  1.08  1.08  1.08  
28          1.81  1.81  1.81  1.81  1.81  1.81  1.81  1.44  1.44  1.08  1.08  1.08  1.08  1.08  1.08  
29          1.81  1.81  1.81  1.81  1.81  1.81  1.81  1.44  1.44  1.08  1.08  1.08  1.08  1.08  1.08  
30          1.81  1.81  1.81  1.81  1.81  1.81  1.81  1.44  1.44  1.08  1.08  1.08  1.08  1.08  1.08  
31          1.81  1.81  1.81  1.81  1.81  1.81  1.81  1.44  1.44  1.08  1.08  1.08  1.08  1.08  1.08  
32          1.81  1.81  1.81  1.81  1.81  1.81  1.81  1.44  1.44  1.08  1.08  1.08  1.08  1.08  1.08  
33          1.81  1.81  1.81  1.81  1.81  1.81  1.81  1.44  1.44  1.08  1.08  1.08  1.08  1.08  1.08  
34          1.90  1.90  1.90  1.90  1.90  1.90  1.90  1.52  1.52  1.14  1.14  1.14  1.14  1.14  1.14  
35          1.90  1.90  1.90  1.90  1.90  1.90  1.90  1.52  1.52  1.14  1.14  1.14  1.14  1.14  1.14  
36          1.90  1.90  1.90  1.90  1.90  1.90  1.90  1.52  1.52  1.14  1.14  1.14  1.14  1.14  1.14  
37          1.90  1.90  1.90  1.90  1.90  1.90  1.90  1.52  1.52  1.14  1.14  1.14  1.14  1.14  1.14  
38          1.90  1.90  1.90  1.90  1.90  1.90  1.90  1.52  1.52  1.14  1.14  1.14  1.14  1.14  1.14  
39          1.90  1.90  1.90  1.90  1.90  1.90  1.90  1.52  1.52  1.14  1.14  1.14  1.14  1.14  1.14  
40          1.90  1.90  1.90  1.90  1.90  1.90  1.90  1.52  1.52  1.14  1.14  1.14  1.14  1.14  1.14  
41          1.90  1.90  1.90  1.90  1.90  1.90  1.90  1.52  1.52  1.14  1.14  1.14  1.14  1.14  1.14  
42          1.90  1.90  1.90  1.90  1.90  1.90  1.90  1.52  1.52  1.14  1.14  1.14  1.14  1.14  1.14  
43          1.90  1.90  1.90  1.90  1.90  1.90  1.90  1.52  1.52  1.14  1.14  1.14  1.14  1.14  1.14  
44          1.90  1.90  1.90  1.90  1.90  1.90  1.90  1.52  1.52  1.14  1.14  1.14  1.14  1.14  1.14  
45          1.90  1.90  1.90  1.90  1.90  1.90  1.90  1.52  1.52  1.14  1.14  1.14  1.14  1.14  1.14  

[*,*,F3 ]:  K1    K2    K3    K4    K5    K6    K7    K8    K9    K10   K11   K12   K13   K14   K15   :=
1           1.64  1.64  1.64  1.64  1.64  1.64  1.64  1.30  1.30  0.98  0.98  0.98  0.98  0.98  0.98  
2           1.64  1.64  1.64  1.64  1.64  1.64  1.64  1.30  1.30  0.98  0.98  0.98  0.98  0.98  0.98  
3           1.64  1.64  1.64  1.64  1.64  1.64  1.64  1.30  1.30  0.98  0.98  0.98  0.98  0.98  0.98  
4           1.64  1.64  1.64  1.64  1.64  1.64  1.64  1.30  1.30  0.98  0.98  0.98  0.98  0.98  0.98  
5           1.64  1.64  1.64  1.64  1.64  1.64  1.64  1.30  1.30  0.98  0.98  0.98  0.98  0.98  0.98  
6           1.64  1.64  1.64  1.64  1.64  1.64  1.64  1.30  1.30  0.98  0.98  0.98  0.98  0.98  0.98  
7           1.64  1.64  1.64  1.64  1.64  1.64  1.64  1.30  1.30  0.98  0.98  0.98  0.98  0.98  0.98  
8           1.64  1.64  1.64  1.64  1.64  1.64  1.64  1.30  1.30  0.98  0.98  0.98  0.98  0.98  0.98  
9           1.64  1.64  1.64  1.64  1.64  1.64  1.64  1.30  1.30  0.98  0.98  0.98  0.98  0.98  0.98  
10          1.64  1.64  1.64  1.64  1.64  1.64  1.64  1.30  1.30  0.98  0.98  0.98  0.98  0.98  0.98  
11          1.64  1.64  1.64  1.64  1.64  1.64  1.64  1.30  1.30  0.98  0.98  0.98  0.98  0.98  0.98  
12          1.64  1.64  1.64  1.64  1.64  1.64  1.64  1.30  1.30  0.98  0.98  0.98  0.98  0.98  0.98  
13          1.64  1.64  1.64  1.64  1.64  1.64  1.64  1.30  1.30  0.98  0.98  0.98  0.98  0.98  0.98  
14          1.64  1.64  1.64  1.64  1.64  1.64  1.64  1.30  1.30  0.98  0.98  0.98  0.98  0.98  0.98  
15          1.64  1.64  1.64  1.64  1.64  1.64  1.64  1.30  1.30  0.98  0.98  0.98  0.98  0.98  0.98  
16          1.64  1.64  1.64  1.64  1.64  1.64  1.64  1.30  1.30  0.98  0.98  0.98  0.98  0.98  0.98  
17          1.64  1.64  1.64  1.64  1.64  1.64  1.64  1.30  1.30  0.98  0.98  0.98  0.98  0.98  0.98  
18          1.64  1.64  1.64  1.64  1.64  1.64  1.64  1.30  1.30  0.98  0.98  0.98  0.98  0.98  0.98  
19          1.64  1.64  1.64  1.64  1.64  1.64  1.64  1.30  1.30  0.98  0.98  0.98  0.98  0.98  0.98  
20          1.64  1.64  1.64  1.64  1.64  1.64  1.64  1.30  1.30  0.98  0.98  0.98  0.98  0.98  0.98  
21          1.64  1.64  1.64  1.64  1.64  1.64  1.64  1.30  1.30  0.98  0.98  0.98  0.98  0.98  0.98  
22          1.64  1.64  1.64  1.64  1.64  1.64  1.64  1.30  1.30  0.98  0.98  0.98  0.98  0.98  0.98  
23          1.64  1.64  1.64  1.64  1.64  1.64  1.64  1.30  1.30  0.98  0.98  0.98  0.98  0.98  0.98  
24          1.64  1.64  1.64  1.64  1.64  1.64  1.64  1.30  1.30  0.98  0.98  0.98  0.98  0.98  0.98  
25          1.55  1.55  1.55  1.55  1.55  1.55  1.55  1.24  1.24  0.93  0.93  0.93  0.93  0.93  0.93  
26          1.55  1.55  1.55  1.55  1.55  1.55  1.55  1.24  1.24  0.93  0.93  0.93  0.93  0.93  0.93  
27          1.55  1.55  1.55  1.55  1.55  1.55  1.55  1.24  1.24  0.93  0.93  0.93  0.93  0.93  0.93  
28          1.55  1.55  1.55  1.55  1.55  1.55  1.55  1.24  1.24  0.93  0.93  0.93  0.93  0.93  0.93  
29          1.55  1.55  1.55  1.55  1.55  1.55  1.55  1.24  1.24  0.93  0.93  0.93  0.93  0.93  0.93  
30          1.55  1.55  1.55  1.55  1.55  1.55  1.55  1.24  1.24  0.93  0.93  0.93  0.93  0.93  0.93  
31          1.55  1.55  1.55  1.55  1.55  1.55  1.55  1.24  1.24  0.93  0.93  0.93  0.93  0.93  0.93  
32          1.55  1.55  1.55  1.55  1.55  1.55  1.55  1.24  1.24  0.93  0.93  0.93  0.93  0.93  0.93  
33          1.55  1.55  1.55  1.55  1.55  1.55  1.55  1.24  1.24  0.93  0.93  0.93  0.93  0.93  0.93  
34          1.64  1.64  1.64  1.64  1.64  1.64  1.64  1.30  1.30  0.98  0.98  0.98  0.98  0.98  0.98  
35          1.64  1.64  1.64  1.64  1.64  1.64  1.64  1.30  1.30  0.98  0.98  0.98  0.98  0.98  0.98  
36          1.64  1.64  1.64  1.64  1.64  1.64  1.64  1.30  1.30  0.98  0.98  0.98  0.98  0.98  0.98  
37          1.64  1.64  1.64  1.64  1.64  1.64  1.64  1.30  1.30  0.98  0.98  0.98  0.98  0.98  0.98  
38          1.64  1.64  1.64  1.64  1.64  1.64  1.64  1.30  1.30  0.98  0.98  0.98  0.98  0.98  0.98  
39          1.64  1.64  1.64  1.64  1.64  1.64  1.64  1.30  1.30  0.98  0.98  0.98  0.98  0.98  0.98  
40          1.64  1.64  1.64  1.64  1.64  1.64  1.64  1.30  1.30  0.98  0.98  0.98  0.98  0.98  0.98  
41          1.64  1.64  1.64  1.64  1.64  1.64  1.64  1.30  1.30  0.98  0.98  0.98  0.98  0.98  0.98  
42          1.64  1.64  1.64  1.64  1.64  1.64  1.64  1.30  1.30  0.98  0.98  0.98  0.98  0.98  0.98  
43          1.64  1.64  1.64  1.64  1.64  1.64  1.64  1.30  1.30  0.98  0.98  0.98  0.98  0.98  0.98  
44          1.64  1.64  1.64  1.64  1.64  1.64  1.64  1.30  1.30  0.98  0.98  0.98  0.98  0.98  0.98  
45          1.64  1.64  1.64  1.64  1.64  1.64  1.64  1.30  1.30  0.98  0.98  0.98  0.98  0.98  0.98  
; # downloads resource k can do at front f in time t if intermediate time slot

param E:= 

[*,*,F1 ]:  K1    K2    K3    K4    K5    K6    K7    K8    K9    K10   K11   K12   K13   K14   K15   :=
1           0.10  0.48  0.18  0.78  0.50  0.56  0.91  0.09  0.65  0.51  0.12  0.14  0.33  0.52  0.20  
2           0.10  0.48  0.18  0.78  0.50  0.56  0.91  0.09  0.65  0.51  0.12  0.14  0.33  0.52  0.20  
3           0.10  0.48  0.18  0.78  0.50  0.56  0.91  0.09  0.65  0.51  0.12  0.14  0.33  0.52  0.20  
4           0.10  0.48  0.18  0.78  0.50  0.56  0.91  0.09  0.65  0.51  0.12  0.14  0.33  0.52  0.20  
5           0.10  0.48  0.18  0.78  0.50  0.56  0.91  0.09  0.65  0.51  0.12  0.14  0.33  0.52  0.20  
6           0.10  0.48  0.18  0.78  0.50  0.56  0.91  0.09  0.65  0.51  0.12  0.14  0.33  0.52  0.20  
7           0.10  0.48  0.18  0.78  0.50  0.56  0.91  0.09  0.65  0.51  0.12  0.14  0.33  0.52  0.20  
8           0.10  0.48  0.18  0.78  0.50  0.56  0.91  0.09  0.65  0.51  0.12  0.14  0.33  0.52  0.20  
9           0.10  0.48  0.18  0.78  0.50  0.56  0.91  0.09  0.65  0.51  0.12  0.14  0.33  0.52  0.20  
10          0.10  0.48  0.18  0.78  0.50  0.56  0.91  0.09  0.65  0.51  0.12  0.14  0.33  0.52  0.20  
11          0.10  0.48  0.18  0.78  0.50  0.56  0.91  0.09  0.65  0.51  0.12  0.14  0.33  0.52  0.20  
12          0.10  0.48  0.18  0.78  0.50  0.56  0.91  0.09  0.65  0.51  0.12  0.14  0.33  0.52  0.20  
13          0.10  0.48  0.18  0.78  0.50  0.56  0.91  0.09  0.65  0.51  0.12  0.14  0.33  0.52  0.20  
14          0.10  0.48  0.18  0.78  0.50  0.56  0.91  0.09  0.65  0.51  0.12  0.14  0.33  0.52  0.20  
15          0.10  0.48  0.18  0.78  0.50  0.56  0.91  0.09  0.65  0.51  0.12  0.14  0.33  0.52  0.20  
16          0.10  0.48  0.18  0.78  0.50  0.56  0.91  0.09  0.65  0.51  0.12  0.14  0.33  0.52  0.20  
17          0.10  0.48  0.18  0.78  0.50  0.56  0.91  0.09  0.65  0.51  0.12  0.14  0.33  0.52  0.20  
18          0.10  0.48  0.18  0.78  0.50  0.56  0.91  0.09  0.65  0.51  0.12  0.14  0.33  0.52  0.20  
19          0.10  0.48  0.18  0.78  0.50  0.56  0.91  0.09  0.65  0.51  0.12  0.14  0.33  0.52  0.20  
20          0.10  0.48  0.18  0.78  0.50  0.56  0.91  0.09  0.65  0.51  0.12  0.14  0.33  0.52  0.20  
21          0.10  0.48  0.18  0.78  0.50  0.56  0.91  0.09  0.65  0.51  0.12  0.14  0.33  0.52  0.20  
22          0.10  0.48  0.18  0.78  0.50  0.56  0.91  0.09  0.65  0.51  0.12  0.14  0.33  0.52  0.20  
23          0.10  0.48  0.18  0.78  0.50  0.56  0.91  0.09  0.65  0.51  0.12  0.14  0.33  0.52  0.20  
24          0.10  0.48  0.18  0.78  0.50  0.56  0.91  0.09  0.65  0.51  0.12  0.14  0.33  0.52  0.20  
25          0.09  0.45  0.17  0.74  0.47  0.53  0.87  0.09  0.62  0.49  0.11  0.14  0.32  0.50  0.19  
26          0.09  0.45  0.17  0.74  0.47  0.53  0.87  0.09  0.62  0.49  0.11  0.14  0.32  0.50  0.19  
27          0.09  0.45  0.17  0.74  0.47  0.53  0.87  0.09  0.62  0.49  0.11  0.14  0.32  0.50  0.19  
28          0.09  0.45  0.17  0.74  0.47  0.53  0.87  0.09  0.62  0.49  0.11  0.14  0.32  0.50  0.19  
29          0.09  0.45  0.17  0.74  0.47  0.53  0.87  0.09  0.62  0.49  0.11  0.14  0.32  0.50  0.19  
30          0.09  0.45  0.17  0.74  0.47  0.53  0.87  0.09  0.62  0.49  0.11  0.14  0.32  0.50  0.19  
31          0.09  0.45  0.17  0.74  0.47  0.53  0.87  0.09  0.62  0.49  0.11  0.14  0.32  0.50  0.19  
32          0.09  0.45  0.17  0.74  0.47  0.53  0.87  0.09  0.62  0.49  0.11  0.14  0.32  0.50  0.19  
33          0.09  0.45  0.17  0.74  0.47  0.53  0.87  0.09  0.62  0.49  0.11  0.14  0.32  0.50  0.19  
34          0.10  0.48  0.18  0.78  0.50  0.56  0.91  0.09  0.65  0.51  0.12  0.14  0.33  0.52  0.20  
35          0.10  0.48  0.18  0.78  0.50  0.56  0.91  0.09  0.65  0.51  0.12  0.14  0.33  0.52  0.20  
36          0.10  0.48  0.18  0.78  0.50  0.56  0.91  0.09  0.65  0.51  0.12  0.14  0.33  0.52  0.20  
37          0.10  0.48  0.18  0.78  0.50  0.56  0.91  0.09  0.65  0.51  0.12  0.14  0.33  0.52  0.20  
38          0.10  0.48  0.18  0.78  0.50  0.56  0.91  0.09  0.65  0.51  0.12  0.14  0.33  0.52  0.20  
39          0.10  0.48  0.18  0.78  0.50  0.56  0.91  0.09  0.65  0.51  0.12  0.14  0.33  0.52  0.20  
40          0.10  0.48  0.18  0.78  0.50  0.56  0.91  0.09  0.65  0.51  0.12  0.14  0.33  0.52  0.20  
41          0.10  0.48  0.18  0.78  0.50  0.56  0.91  0.09  0.65  0.51  0.12  0.14  0.33  0.52  0.20  
42          0.10  0.48  0.18  0.78  0.50  0.56  0.91  0.09  0.65  0.51  0.12  0.14  0.33  0.52  0.20  
43          0.10  0.48  0.18  0.78  0.50  0.56  0.91  0.09  0.65  0.51  0.12  0.14  0.33  0.52  0.20  
44          0.10  0.48  0.18  0.78  0.50  0.56  0.91  0.09  0.65  0.51  0.12  0.14  0.33  0.52  0.20  
45          0.10  0.48  0.18  0.78  0.50  0.56  0.91  0.09  0.65  0.51  0.12  0.14  0.33  0.52  0.20  

[*,*,F2 ]:  K1    K2    K3    K4    K5    K6    K7    K8    K9    K10   K11   K12   K13   K14   K15   :=
1           0.17  0.53  0.27  0.70  0.40  0.38  0.88  0.06  0.50  0.54  0.15  0.16  0.34  0.52  0.17  
2           0.17  0.53  0.27  0.70  0.40  0.38  0.88  0.06  0.50  0.54  0.15  0.16  0.34  0.52  0.17  
3           0.17  0.53  0.27  0.70  0.40  0.38  0.88  0.06  0.50  0.54  0.15  0.16  0.34  0.52  0.17  
4           0.17  0.53  0.27  0.70  0.40  0.38  0.88  0.06  0.50  0.54  0.15  0.16  0.34  0.52  0.17  
5           0.17  0.53  0.27  0.70  0.40  0.38  0.88  0.06  0.50  0.54  0.15  0.16  0.34  0.52  0.17  
6           0.17  0.53  0.27  0.70  0.40  0.38  0.88  0.06  0.50  0.54  0.15  0.16  0.34  0.52  0.17  
7           0.17  0.53  0.27  0.70  0.40  0.38  0.88  0.06  0.50  0.54  0.15  0.16  0.34  0.52  0.17  
8           0.17  0.53  0.27  0.70  0.40  0.38  0.88  0.06  0.50  0.54  0.15  0.16  0.34  0.52  0.17  
9           0.17  0.53  0.27  0.70  0.40  0.38  0.88  0.06  0.50  0.54  0.15  0.16  0.34  0.52  0.17  
10          0.17  0.53  0.27  0.70  0.40  0.38  0.88  0.06  0.50  0.54  0.15  0.16  0.34  0.52  0.17  
11          0.17  0.53  0.27  0.70  0.40  0.38  0.88  0.06  0.50  0.54  0.15  0.16  0.34  0.52  0.17  
12          0.17  0.53  0.27  0.70  0.40  0.38  0.88  0.06  0.50  0.54  0.15  0.16  0.34  0.52  0.17  
13          0.17  0.53  0.27  0.70  0.40  0.38  0.88  0.06  0.50  0.54  0.15  0.16  0.34  0.52  0.17  
14          0.17  0.53  0.27  0.70  0.40  0.38  0.88  0.06  0.50  0.54  0.15  0.16  0.34  0.52  0.17  
15          0.17  0.53  0.27  0.70  0.40  0.38  0.88  0.06  0.50  0.54  0.15  0.16  0.34  0.52  0.17  
16          0.17  0.53  0.27  0.70  0.40  0.38  0.88  0.06  0.50  0.54  0.15  0.16  0.34  0.52  0.17  
17          0.17  0.53  0.27  0.70  0.40  0.38  0.88  0.06  0.50  0.54  0.15  0.16  0.34  0.52  0.17  
18          0.17  0.53  0.27  0.70  0.40  0.38  0.88  0.06  0.50  0.54  0.15  0.16  0.34  0.52  0.17  
19          0.17  0.53  0.27  0.70  0.40  0.38  0.88  0.06  0.50  0.54  0.15  0.16  0.34  0.52  0.17  
20          0.17  0.53  0.27  0.70  0.40  0.38  0.88  0.06  0.50  0.54  0.15  0.16  0.34  0.52  0.17  
21          0.17  0.53  0.27  0.70  0.40  0.38  0.88  0.06  0.50  0.54  0.15  0.16  0.34  0.52  0.17  
22          0.17  0.53  0.27  0.70  0.40  0.38  0.88  0.06  0.50  0.54  0.15  0.16  0.34  0.52  0.17  
23          0.17  0.53  0.27  0.70  0.40  0.38  0.88  0.06  0.50  0.54  0.15  0.16  0.34  0.52  0.17  
24          0.17  0.53  0.27  0.70  0.40  0.38  0.88  0.06  0.50  0.54  0.15  0.16  0.34  0.52  0.17  
25          0.16  0.51  0.25  0.67  0.38  0.36  0.83  0.06  0.48  0.51  0.14  0.15  0.32  0.50  0.16  
26          0.16  0.51  0.25  0.67  0.38  0.36  0.83  0.06  0.48  0.51  0.14  0.15  0.32  0.50  0.16  
27          0.16  0.51  0.25  0.67  0.38  0.36  0.83  0.06  0.48  0.51  0.14  0.15  0.32  0.50  0.16  
28          0.16  0.51  0.25  0.67  0.38  0.36  0.83  0.06  0.48  0.51  0.14  0.15  0.32  0.50  0.16  
29          0.16  0.51  0.25  0.67  0.38  0.36  0.83  0.06  0.48  0.51  0.14  0.15  0.32  0.50  0.16  
30          0.16  0.51  0.25  0.67  0.38  0.36  0.83  0.06  0.48  0.51  0.14  0.15  0.32  0.50  0.16  
31          0.16  0.51  0.25  0.67  0.38  0.36  0.83  0.06  0.48  0.51  0.14  0.15  0.32  0.50  0.16  
32          0.16  0.51  0.25  0.67  0.38  0.36  0.83  0.06  0.48  0.51  0.14  0.15  0.32  0.50  0.16  
33          0.16  0.51  0.25  0.67  0.38  0.36  0.83  0.06  0.48  0.51  0.14  0.15  0.32  0.50  0.16  
34          0.17  0.53  0.27  0.70  0.40  0.38  0.88  0.06  0.50  0.54  0.15  0.16  0.34  0.52  0.17  
35          0.17  0.53  0.27  0.70  0.40  0.38  0.88  0.06  0.50  0.54  0.15  0.16  0.34  0.52  0.17  
36          0.17  0.53  0.27  0.70  0.40  0.38  0.88  0.06  0.50  0.54  0.15  0.16  0.34  0.52  0.17  
37          0.17  0.53  0.27  0.70  0.40  0.38  0.88  0.06  0.50  0.54  0.15  0.16  0.34  0.52  0.17  
38          0.17  0.53  0.27  0.70  0.40  0.38  0.88  0.06  0.50  0.54  0.15  0.16  0.34  0.52  0.17  
39          0.17  0.53  0.27  0.70  0.40  0.38  0.88  0.06  0.50  0.54  0.15  0.16  0.34  0.52  0.17  
40          0.17  0.53  0.27  0.70  0.40  0.38  0.88  0.06  0.50  0.54  0.15  0.16  0.34  0.52  0.17  
41          0.17  0.53  0.27  0.70  0.40  0.38  0.88  0.06  0.50  0.54  0.15  0.16  0.34  0.52  0.17  
42          0.17  0.53  0.27  0.70  0.40  0.38  0.88  0.06  0.50  0.54  0.15  0.16  0.34  0.52  0.17  
43          0.17  0.53  0.27  0.70  0.40  0.38  0.88  0.06  0.50  0.54  0.15  0.16  0.34  0.52  0.17  
44          0.17  0.53  0.27  0.70  0.40  0.38  0.88  0.06  0.50  0.54  0.15  0.16  0.34  0.52  0.17  
45          0.17  0.53  0.27  0.70  0.40  0.38  0.88  0.06  0.50  0.54  0.15  0.16  0.34  0.52  0.17  

[*,*,F3 ]:  K1    K2    K3    K4    K5    K6    K7    K8    K9    K10   K11   K12   K13   K14   K15   :=
1           0.13  0.36  0.18  0.61  0.25  0.46  0.79  0.00  0.53  0.51  0.11  0.07  0.22  0.42  0.21  
2           0.13  0.36  0.18  0.61  0.25  0.46  0.79  0.00  0.53  0.51  0.11  0.07  0.22  0.42  0.21  
3           0.13  0.36  0.18  0.61  0.25  0.46  0.79  0.00  0.53  0.51  0.11  0.07  0.22  0.42  0.21  
4           0.13  0.36  0.18  0.61  0.25  0.46  0.79  0.00  0.53  0.51  0.11  0.07  0.22  0.42  0.21  
5           0.13  0.36  0.18  0.61  0.25  0.46  0.79  0.00  0.53  0.51  0.11  0.07  0.22  0.42  0.21  
6           0.13  0.36  0.18  0.61  0.25  0.46  0.79  0.00  0.53  0.51  0.11  0.07  0.22  0.42  0.21  
7           0.13  0.36  0.18  0.61  0.25  0.46  0.79  0.00  0.53  0.51  0.11  0.07  0.22  0.42  0.21  
8           0.13  0.36  0.18  0.61  0.25  0.46  0.79  0.00  0.53  0.51  0.11  0.07  0.22  0.42  0.21  
9           0.13  0.36  0.18  0.61  0.25  0.46  0.79  0.00  0.53  0.51  0.11  0.07  0.22  0.42  0.21  
10          0.13  0.36  0.18  0.61  0.25  0.46  0.79  0.00  0.53  0.51  0.11  0.07  0.22  0.42  0.21  
11          0.13  0.36  0.18  0.61  0.25  0.46  0.79  0.00  0.53  0.51  0.11  0.07  0.22  0.42  0.21  
12          0.13  0.36  0.18  0.61  0.25  0.46  0.79  0.00  0.53  0.51  0.11  0.07  0.22  0.42  0.21  
13          0.13  0.36  0.18  0.61  0.25  0.46  0.79  0.00  0.53  0.51  0.11  0.07  0.22  0.42  0.21  
14          0.13  0.36  0.18  0.61  0.25  0.46  0.79  0.00  0.53  0.51  0.11  0.07  0.22  0.42  0.21  
15          0.13  0.36  0.18  0.61  0.25  0.46  0.79  0.00  0.53  0.51  0.11  0.07  0.22  0.42  0.21  
16          0.13  0.36  0.18  0.61  0.25  0.46  0.79  0.00  0.53  0.51  0.11  0.07  0.22  0.42  0.21  
17          0.13  0.36  0.18  0.61  0.25  0.46  0.79  0.00  0.53  0.51  0.11  0.07  0.22  0.42  0.21  
18          0.13  0.36  0.18  0.61  0.25  0.46  0.79  0.00  0.53  0.51  0.11  0.07  0.22  0.42  0.21  
19          0.13  0.36  0.18  0.61  0.25  0.46  0.79  0.00  0.53  0.51  0.11  0.07  0.22  0.42  0.21  
20          0.13  0.36  0.18  0.61  0.25  0.46  0.79  0.00  0.53  0.51  0.11  0.07  0.22  0.42  0.21  
21          0.13  0.36  0.18  0.61  0.25  0.46  0.79  0.00  0.53  0.51  0.11  0.07  0.22  0.42  0.21  
22          0.13  0.36  0.18  0.61  0.25  0.46  0.79  0.00  0.53  0.51  0.11  0.07  0.22  0.42  0.21  
23          0.13  0.36  0.18  0.61  0.25  0.46  0.79  0.00  0.53  0.51  0.11  0.07  0.22  0.42  0.21  
24          0.13  0.36  0.18  0.61  0.25  0.46  0.79  0.00  0.53  0.51  0.11  0.07  0.22  0.42  0.21  
25          0.12  0.34  0.17  0.58  0.23  0.44  0.75  0.00  0.51  0.48  0.10  0.07  0.20  0.40  0.20  
26          0.12  0.34  0.17  0.58  0.23  0.44  0.75  0.00  0.51  0.48  0.10  0.07  0.20  0.40  0.20  
27          0.12  0.34  0.17  0.58  0.23  0.44  0.75  0.00  0.51  0.48  0.10  0.07  0.20  0.40  0.20  
28          0.12  0.34  0.17  0.58  0.23  0.44  0.75  0.00  0.51  0.48  0.10  0.07  0.20  0.40  0.20  
29          0.12  0.34  0.17  0.58  0.23  0.44  0.75  0.00  0.51  0.48  0.10  0.07  0.20  0.40  0.20  
30          0.12  0.34  0.17  0.58  0.23  0.44  0.75  0.00  0.51  0.48  0.10  0.07  0.20  0.40  0.20  
31          0.12  0.34  0.17  0.58  0.23  0.44  0.75  0.00  0.51  0.48  0.10  0.07  0.20  0.40  0.20  
32          0.12  0.34  0.17  0.58  0.23  0.44  0.75  0.00  0.51  0.48  0.10  0.07  0.20  0.40  0.20  
33          0.12  0.34  0.17  0.58  0.23  0.44  0.75  0.00  0.51  0.48  0.10  0.07  0.20  0.40  0.20  
34          0.13  0.36  0.18  0.61  0.25  0.46  0.79  0.00  0.53  0.51  0.11  0.07  0.22  0.42  0.21  
35          0.13  0.36  0.18  0.61  0.25  0.46  0.79  0.00  0.53  0.51  0.11  0.07  0.22  0.42  0.21  
36          0.13  0.36  0.18  0.61  0.25  0.46  0.79  0.00  0.53  0.51  0.11  0.07  0.22  0.42  0.21  
37          0.13  0.36  0.18  0.61  0.25  0.46  0.79  0.00  0.53  0.51  0.11  0.07  0.22  0.42  0.21  
38          0.13  0.36  0.18  0.61  0.25  0.46  0.79  0.00  0.53  0.51  0.11  0.07  0.22  0.42  0.21  
39          0.13  0.36  0.18  0.61  0.25  0.46  0.79  0.00  0.53  0.51  0.11  0.07  0.22  0.42  0.21  
40          0.13  0.36  0.18  0.61  0.25  0.46  0.79  0.00  0.53  0.51  0.11  0.07  0.22  0.42  0.21  
41          0.13  0.36  0.18  0.61  0.25  0.46  0.79  0.00  0.53  0.51  0.11  0.07  0.22  0.42  0.21  
42          0.13  0.36  0.18  0.61  0.25  0.46  0.79  0.00  0.53  0.51  0.11  0.07  0.22  0.42  0.21  
43          0.13  0.36  0.18  0.61  0.25  0.46  0.79  0.00  0.53  0.51  0.11  0.07  0.22  0.42  0.21  
44          0.13  0.36  0.18  0.61  0.25  0.46  0.79  0.00  0.53  0.51  0.11  0.07  0.22  0.42  0.21  
45          0.13  0.36  0.18  0.61  0.25  0.46  0.79  0.00  0.53  0.51  0.11  0.07  0.22  0.42  0.21  
; # downloads resource k can do at front f in time t if starting or ending flight

param W: 
	F1        F2        F3        :=
1	763.52    763.52    763.52    
2	3054.07   3054.07   3054.07   
3	3054.07   3054.07   3054.07   
4	3054.07   3054.07   3054.07   
5	3054.07   3054.07   3054.07   
6	3054.07   3054.07   3054.07   
7	3054.07   3054.07   3054.07   
8	3054.07   3054.07   3054.07   
9	3054.07   3054.07   3054.07   
10	3054.07   3054.07   3054.07   
11	3054.07   3054.07   3054.07   
12	3054.07   3054.07   3054.07   
13	3054.07   3054.07   3054.07   
14	3054.07   3054.07   3054.07   
15	3054.07   3054.07   3054.07   
16	3054.07   3054.07   3054.07   
17	3054.07   3054.07   3054.07   
18	3054.07   3054.07   3054.07   
19	3054.07   3054.07   3054.07   
20	3054.07   3054.07   3054.07   
21	3054.07   3054.07   3054.07   
22	3054.07   3054.07   3054.07   
23	3054.07   3054.07   3054.07   
24	3054.07   3054.07   3054.07   
25	3054.07   3054.07   3054.07   
26	3054.07   3054.07   3054.07   
27	3054.07   3054.07   3054.07   
28	3054.07   3054.07   3054.07   
29	3054.07   3054.07   3054.07   
30	3054.07   3054.07   3054.07   
31	3054.07   3054.07   3054.07   
32	3054.07   3054.07   3054.07   
33	3054.07   3054.07   3054.07   
34	3054.07   3054.07   3054.07   
35	3054.07   3054.07   3054.07   
36	3054.07   3054.07   3054.07   
37	3054.07   3054.07   3054.07   
38	3054.07   3054.07   3054.07   
39	3054.07   3054.07   3054.07   
40	3054.07   3054.07   3054.07   
41	3054.07   3054.07   3054.07   
42	3054.07   3054.07   3054.07   
43	3054.07   3054.07   3054.07   
44	3054.07   3054.07   3054.07   
45	763.52    763.52    763.52    
; # water needed at front f in time slot t

param M := 100000000; 

param a1:= 10000000;

param a2:= 100;

param a3:= 0.0001;
